100
150
100
98
98
98
98
98
97
97
96
95
95
93
92
90
89
87
86
86
84
84
84
84
80
80
80
79
79
78
77
74
73
73
72
72
72
71
71
71
70
69
69
69
68
67
66
65
64
64
63
63
62
60
57
57
57
55
55
55
54
53
53
52
52
52
51
51
50
49
47
46
46
45
44
44
44
43
43
43
42
41
41
41
41
40
40
39
39
39
39
38
38
37
36
35
35
34
32
31
30
30
